DIMENSION: 7
EDGE_WEIGHT_TYPE: EXPLICIT
EDGE_WEIGHT_FORMAT: FULL_MATRIX
EDGE_WEIGHT_SECTION:
32767 41 32767 32767 32767 32767 32767 
41 32767 32767 32767 81 32767 32767 
32767 32767 32767 32767 32767 58 32767 
32767 32767 32767 32767 32767 32767 32767 
32767 81 32767 32767 32767 32767 32767 
32767 32767 58 32767 32767 32767 45 
32767 32767 32767 32767 32767 45 32767 
EOF